300
200
159
159
159
159
159
159
159
158
158
157
157
156
156
156
156
156
156
155
155
154
154
154
151
151
151
151
150
150
149
149
149
148
147
147
146
146
146
145
145
145
144
144
143
142
142
142
141
141
140
140
139
139
137
137
135
133
133
132
132
131
130
130
129
129
129
129
128
128
127
127
127
126
125
125
124
123
121
121
121
119
119
118
118
118
117
117
117
117
116
116
115
115
115
115
114
114
114
113
112
112
110
110
109
109
109
109
107
106
106
106
105
105
104
104
103
103
102
101
99
99
98
98
98
98
96
94
94
93
93
93
93
91
91
91
90
90
89
89
88
88
88
88
88
87
87
86
85
84
84
84
84
83
83
83
83
83
83
83
82
82
82
81
81
80
80
80
79
78
78
78
78
77
77
76
76
75
75
75
75
75
74
74
73
73
72
71
68
68
67
67
67
66
66
66
66
66
65
65
65
65
63
62
62
62
61
60
60
60
60
59
59
58
58
57
56
55
55
54
54
54
54
54
54
53
53
53
53
53
52
52
51
51
51
51
51
51
49
49
49
49
48
48
48
47
47
47
47
46
46
46
45
45
44
41
41
40
40
38
37
37
37
36
36
36
35
34
34
33
33
32
32
31
30
30
30
30
30
29
28
28
28
27
26
25
25
25
25
24
24
24
24
24
24
24
23
22
22
21
21
20
